Route #1: 1 11 10 36 2 14 17 24
Route #2: 5 30 42 13 43
Route #3: 29 34 18 6 26 25 16
Route #4: 20 7 15 3 9 40 33 44
Route #5: 12 35 38 41 31 21
Route #6: 39 22 8 28 32 23 37 19 27 4
Cost 678
Time 0.07954
